
Gurobi 7.0.2 (win64, Python) logging started 04/04/17 22:56:47


Gurobi 6.5.1 (win64) logging started 04/06/17 15:26:27


Gurobi 6.5.1 (win64) logging started 04/06/17 15:27:04


Gurobi 6.5.1 (win64) logging started 04/06/17 15:28:03


Gurobi 6.5.1 (win64) logging started 04/06/17 15:30:43


Gurobi 6.5.1 (win64) logging started 04/06/17 15:32:08


Gurobi 6.5.1 (win64) logging started 04/06/17 15:32:24


Gurobi 6.5.1 (win64) logging started 04/06/17 15:48:30


Gurobi 6.5.1 (win64) logging started 04/06/17 15:49:17


Gurobi 6.5.1 (win64) logging started 04/06/17 15:50:03


Gurobi 6.5.1 (win64) logging started 04/06/17 15:51:00


Gurobi 6.5.1 (win64) logging started 04/06/17 15:53:25


Gurobi 6.5.1 (win64) logging started 04/06/17 15:54:32


Gurobi 6.5.1 (win64) logging started 04/06/17 15:54:58


Gurobi 6.5.1 (win64) logging started 04/06/17 15:58:14


Gurobi 6.5.1 (win64) logging started 04/06/17 16:00:51


Gurobi 6.5.1 (win64) logging started 04/06/17 16:03:37


Gurobi 6.5.1 (win64) logging started 04/06/17 16:13:05


Gurobi 6.5.1 (win64) logging started 04/06/17 16:13:23


Gurobi 6.5.1 (win64) logging started 04/06/17 16:13:36


Gurobi 6.5.1 (win64) logging started 04/06/17 16:17:31


Gurobi 6.5.1 (win64) logging started 04/06/17 16:22:12


Gurobi 6.5.1 (win64) logging started 04/06/17 16:55:04


Gurobi 6.5.1 (win64) logging started 04/06/17 17:19:03


Gurobi 6.5.1 (win64) logging started 04/06/17 17:22:23


Gurobi 6.5.1 (win64) logging started 04/06/17 17:24:20


Gurobi 7.0.2 (win64, Python) logging started 04/06/17 23:34:44


Gurobi 7.0.2 (win64, Python) logging started 04/06/17 23:39:18


Gurobi 6.5.1 (win64) logging started 04/12/17 12:50:34


Gurobi 6.5.1 (win64) logging started 05/21/17 18:44:20


Gurobi 6.5.1 (win64) logging started 05/21/17 18:55:52


Gurobi 6.5.1 (win64) logging started 05/21/17 18:57:24


Gurobi 6.5.1 (win64) logging started 05/21/17 19:21:38


Gurobi 6.5.1 (win64) logging started 05/21/17 19:28:25


Gurobi 6.5.1 (win64) logging started 05/21/17 19:43:45


Gurobi 6.5.1 (win64) logging started 05/21/17 19:47:24


Gurobi 6.5.1 (win64) logging started 05/21/17 20:11:18


Gurobi 6.5.1 (win64) logging started 05/21/17 20:14:07


Gurobi 6.5.1 (win64) logging started 05/21/17 20:19:14

